ObjectiveValue = 4990.9;
flow=[(5,1,1)(5,2,4)(5,4,0)(5,6,44)(5,8,0)(5,9,0)(5,10,1)(5,11,5)(5,12,0)(5,13,0)(6,5,4)(6,7,3)(6,10,7)(6,11,20)(7,6,3)(8,9,3)(10,9,2)(10,12,2)(11,5,2)(11,6,27)(12,5,0)(12,6,26)(12,8,0)(12,9,0)(12,10,0)(12,11,0)(13,12,2)];
